
Gurobi 12.0.0 (armlinux64) logging started Sat Apr 26 13:45:40 2025

Set parameter LogFile to value "task_set_gurobi_solver.log"
Set parameter PoolSearchMode to value 2
Set parameter PoolSolutions to value 10
Set parameter PoolGap to value 0.2
Gurobi Optimizer version 12.0.0 build v12.0.0rc1 (armlinux64 - "Debian GNU/Linux 12 (bookworm)")

CPU model: ARM64
Thread count: 4 physical cores, 4 logical processors, using up to 4 threads

Non-default parameters:
PoolSearchMode  2
PoolGap  0.2

Optimize a model with 1300 rows, 302 columns and 1500 nonzeros
Model fingerprint: 0xb99b331e
Variable types: 2 continuous, 300 integer (300 binary)
Coefficient statistics:
  Matrix range     [1e+00, 2e+02]
  Objective range  [1e-11, 3e-01]
  Bounds range     [1e+00, 1e+00]
  RHS range        [1e+00, 3e+10]
Warning: Model contains large rhs
         Consider reformulating model or setting NumericFocus parameter
         to avoid numerical issues.
Found heuristic solution: objective 0.7119780
Presolve removed 1100 rows and 0 columns
Presolve time: 0.10s
Presolved: 200 rows, 302 columns, 500 nonzeros
Variable types: 2 continuous, 300 integer (300 binary)

Root relaxation: objective 7.119779e-01, 101 iterations, 0.02 seconds (0.00 work units)

    Nodes    |    Current Node    |     Objective Bounds      |     Work
 Expl Unexpl |  Obj  Depth IntInf | Incumbent    BestBd   Gap | It/Node Time

*    0     0               0       0.7119779    0.71198  0.00%     -    0s

Optimal solution found at node 0 - now completing solution pool...

    Nodes    |    Current Node    |      Pool Obj. Bounds     |     Work
             |                    |   Worst                   |
 Expl Unexpl |  Obj  Depth IntInf | Incumbent    BestBd   Gap | It/Node Time

     0     0          -    0               -    0.71198      -     -    0s
     0     0          -    0               -    0.71198      -     -    0s
     0     2          -    0               -    0.71198      -     -    0s

Explored 71 nodes (139 simplex iterations) in 0.27 seconds (0.00 work units)
Thread count was 4 (of 4 available processors)

Solution count 10: 0.711978 0.711978 0.711978 ... 0.711978
No other solutions better than 0.711978

Optimal solution found (tolerance 1.00e-04)
Best objective 7.119779044482e-01, best bound 7.119779044482e-01, gap 0.0000%

Gurobi 12.0.0 (armlinux64) logging started Sat Apr 26 13:45:40 2025

Set parameter LogFile to value "task_set_gurobi_solver.log"
Set parameter PoolSearchMode to value 2
Set parameter PoolSolutions to value 10
Set parameter PoolGap to value 0.2
Gurobi Optimizer version 12.0.0 build v12.0.0rc1 (armlinux64 - "Debian GNU/Linux 12 (bookworm)")

CPU model: ARM64
Thread count: 4 physical cores, 4 logical processors, using up to 4 threads

Non-default parameters:
PoolSearchMode  2
PoolGap  0.2

Optimize a model with 1300 rows, 302 columns and 1500 nonzeros
Model fingerprint: 0xb99b331e
Variable types: 2 continuous, 300 integer (300 binary)
Coefficient statistics:
  Matrix range     [1e+00, 2e+02]
  Objective range  [1e-11, 3e-01]
  Bounds range     [1e+00, 1e+00]
  RHS range        [1e+00, 3e+10]
Warning: Model contains large rhs
         Consider reformulating model or setting NumericFocus parameter
         to avoid numerical issues.
Found heuristic solution: objective 0.7119780
Presolve removed 1100 rows and 0 columns
Presolve time: 0.00s
Presolved: 200 rows, 302 columns, 500 nonzeros
Variable types: 2 continuous, 300 integer (300 binary)

Root relaxation: objective 7.119779e-01, 101 iterations, 0.00 seconds (0.00 work units)

    Nodes    |    Current Node    |     Objective Bounds      |     Work
 Expl Unexpl |  Obj  Depth IntInf | Incumbent    BestBd   Gap | It/Node Time

*    0     0               0       0.7119779    0.71198  0.00%     -    0s

Optimal solution found at node 0 - now completing solution pool...

    Nodes    |    Current Node    |      Pool Obj. Bounds     |     Work
             |                    |   Worst                   |
 Expl Unexpl |  Obj  Depth IntInf | Incumbent    BestBd   Gap | It/Node Time

     0     0          -    0               -    0.71198      -     -    0s
     0     0          -    0               -    0.71198      -     -    0s
     0     2          -    0               -    0.71198      -     -    0s

Explored 71 nodes (139 simplex iterations) in 0.03 seconds (0.00 work units)
Thread count was 4 (of 4 available processors)

Solution count 10: 0.711978 0.711978 0.711978 ... 0.711978
No other solutions better than 0.711978

Optimal solution found (tolerance 1.00e-04)
Best objective 7.119779044482e-01, best bound 7.119779044482e-01, gap 0.0000%
